6 32 4 10
2 19 10 2 5 4 18 20 11 12 15 2 13 8 4 19 9 9 14 20 14 5 20 5 1 11 4 15 10 1 15 6 
14.92 4.45 13.38 1.84 6.02 12.9 7.53 4.18 9.56 0.11 10.75 12.21 4.44 10.73 8.59 8.55 0.86 5.73 11.65 11.55 4.69 14.57 13.45 14.98 14 8.2 3.26 5.54 12.49 3.7 4.19 0.57 
0.42 2.98 13.33 5.08 7.92 15.47 2.08 10.51 7.43 8.5 11.21 9.75 15.44 8.05 3.62 9.53 11.73 9.12 4.77 7.92 1.65 12.19 5.89 10.99 11.35 4.5 0.09 9.17 9.88 1.92 1.27 15.23 
15.33 4.27 9.46 8.69 6.57 15.97 4.41 0.78 9.82 11.53 3.26 13.85 15.17 11.83 11.91 7.2 3.36 15.22 0.29 15.66 8.42 9.77 2.07 9.07 10.44 14.11 13.97 5.14 12.68 15.12 3.36 8.09 
8.86 0.59 13.15 15.3 13.97 8.68 7.04 0.46 1.91 0.14 5.08 1.56 5.16 6.79 8.72 14.11 0.17 2.18 3.18 11.08 10.19 6.35 7.01 5.55 15.97 9.77 2.49 0.08 12.61 14.82 11.99 5.03 
8 8 8 8 8 8 8 8 8 8 8 8 8 8 8 8 8 8 8 8 8 8 8 8 8 8 8 8 8 8 8 8 
4.86 8.17 5.11 3.02 4.03 14.14 13.59 13.72 1.27 9.53 3.58 0.19 11.61 11.09 9.48 4.46 13.78 13.76 2.25 11.05 9.38 2.81 8.86 11.78 9.74 15.24 7.45 10.07 15.8 5.92 11.61 10.49 
1 1 1 1 1 1 1 1 1 1 1 1 1 1 1 1 1 1 1 1 1 1 1 1 1 1 1 1 1 1 1 1 
1 1 1 1 1 1 1 1 1 1 1 1 1 1 1 1 1 1 1 1 1 1 1 1 1 1 1 1 1 1 1 1 
1 1 1 1 1 1 1 1 1 1 1 1 1 1 1 1 1 1 1 1 1 1 1 1 1 1 1 1 1 1 1 1 
1 1 1 1 1 1 1 1 1 1 1 1 1 1 1 1 1 1 1 1 1 1 1 1 1 1 1 1 1 1 1 1 
1 1 1 1 1 1 1 1 1 1 1 1 1 1 1 1 1 1 1 1 1 1 1 1 1 1 1 1 1 1 1 1 
1 1 1 1 1 1 1 1 1 1 1 1 1 1 1 1 1 1 1 1 1 1 1 1 1 1 1 1 1 1 1 1 
0.01 0.01 0.01 0.01 0.01 0.01 0.01 0.01 0.01 0.01 0.01 0.01 0.01 0.01 0.01 0.01 0.01 0.01 0.01 0.01 0.01 0.01 0.01 0.01 0.01 0.01 0.01 0.01 0.01 0.01 0.01 0.01 
0.02 0.02 0.02 0.02 0.02 0.02 0.02 0.02 0.02 0.02 0.02 0.02 0.02 0.02 0.02 0.02 0.02 0.02 0.02 0.02 0.02 0.02 0.02 0.02 0.02 0.02 0.02 0.02 0.02 0.02 0.02 0.02 
0.03 0.03 0.03 0.03 0.03 0.03 0.03 0.03 0.03 0.03 0.03 0.03 0.03 0.03 0.03 0.03 0.03 0.03 0.03 0.03 0.03 0.03 0.03 0.03 0.03 0.03 0.03 0.03 0.03 0.03 0.03 0.03 
0.04 0.04 0.04 0.04 0.04 0.04 0.04 0.04 0.04 0.04 0.04 0.04 0.04 0.04 0.04 0.04 0.04 0.04 0.04 0.04 0.04 0.04 0.04 0.04 0.04 0.04 0.04 0.04 0.04 0.04 0.04 0.04 
0.05 0.05 0.05 0.05 0.05 0.05 0.05 0.05 0.05 0.05 0.05 0.05 0.05 0.05 0.05 0.05 0.05 0.05 0.05 0.05 0.05 0.05 0.05 0.05 0.05 0.05 0.05 0.05 0.05 0.05 0.05 0.05 
1 1 1 1 1 1 1 1 1 1 1 1 1 1 1 1 1 1 1 1 1 1 1 1 1 1 1 1 1 1 1 1 
